certificates/rado_a15_c171_N52.drat
-45 11 -52 0
-46 -52 0
d -46 -11 -52 0
-9 -47 -48 -52 0
-45 -51 -52 0
-49 16 15 -9 0
14 49 45 46 0
-51 -52 0
d -45 -51 -52 0
45 -52 0
-52 0
-3 51 0
3 -45 0
-45 0
9 0
-3 0
12 0
-21 0
-18 0
-48 0
13 0
-51 0
-33 0
-36 0
-22 0
-37 0
-49 0
-4 0
11 0
-5 0
-17 0
-47 0
-15 0
-2 0
-20 0
-6 0
-35 0
-19 0
-7 0
10 0
14 0
-31 0
-46 0
-30 0
-32 0
-16 0
-1 0
-34 0
-23 0
-38 0
-50 0
-8 0
0
